NAME:18_HardATSPLIB_18
TYPE: ATSP
DIMENSION: 18
EDGE_WEIGHT_TYPE: EXPLICIT
EDGE_WEIGHT_FORMAT: FULL_MATRIX
EDGE_WEIGHT_SECTION
0 26 26 63 26 26 0 2 6 6 6 10 10 14 18 18 22 26 
70 0 48 85 0 92 22 20 20 16 12 12 8 8 8 4 4 4 
74 4 0 37 0 52 26 24 24 20 16 16 12 12 12 8 8 8 
37 19 15 0 15 15 37 39 39 35 31 31 27 27 27 23 23 23 
74 52 48 85 0 100 26 28 32 32 32 36 36 40 44 44 48 52 
74 4 0 37 0 0 26 24 24 20 16 16 12 12 12 8 8 8 
48 26 26 63 26 74 0 2 6 6 6 10 10 14 18 18 22 26 
50 24 28 65 24 72 2 0 4 4 4 8 8 12 16 16 20 24 
50 20 28 65 20 72 2 0 0 0 0 4 4 8 12 12 16 20 
54 20 32 69 20 76 6 4 4 0 0 4 4 8 12 12 16 20 
58 20 36 73 20 80 10 8 8 4 0 4 4 8 12 12 16 20 
58 16 36 73 16 80 10 8 8 4 0 0 0 4 8 8 12 16 
62 16 40 77 16 84 14 12 12 8 4 4 0 4 8 8 12 16 
62 12 40 77 12 84 14 12 12 8 4 4 0 0 4 4 8 12 
62 8 40 77 8 84 14 12 12 8 4 4 0 0 0 0 4 8 
66 8 44 81 8 88 18 16 16 12 8 8 4 4 4 0 4 8 
66 4 44 81 4 88 18 16 16 12 8 8 4 4 4 0 0 4 
66 0 44 81 0 88 18 16 16 12 8 8 4 4 4 0 0 0 
